results/res_prop_muc/res_Cimatti_mathsat_cores/QF_UF/PEQ012_size3.smt.smt2.out

real	0m0.178s
user	0m0.070s
sys	0m0.010s
